(set-logic HORN)
(declare-rel inv1 ( (Array Int Int) Int Int))(declare-rel inv2 ( (Array Int Int) Int Int))(declare-rel fail ( ))(forall ((a (Array Int Int)) (S Int)) (! (=> (> S 1) (inv1 a 0 S)) ))(forall ((a (Array Int Int)) (i Int) (a1 (Array Int Int)) (i1 Int) (S Int))
  (! (let ((a!1 (= (store a i (* (- i 1) (+ i 1))) a1)))
       (=> (and (inv1 a i S) (< i S) a!1 (= i1 (+ i 1))) (inv1 a1 i1 S)))
     ))(forall ((i Int) (a (Array Int Int)) (S Int))
  (! (=> (and (inv1 a i S) (not (< i S))) (inv2 a 0 S)) ))(forall ((a (Array Int Int)) (i Int) (a1 (Array Int Int)) (i1 Int) (S Int))
  (! (let ((a!1 (= (store a i (- (select a i) (* i i))) a1)))
       (=> (and (inv2 a i S) (< i S) a!1 (= i1 (+ i 1))) (inv2 a1 i1 S)))
     ))(forall ((i Int) (S Int) (a (Array Int Int)) (i1 Int))
  (! (let ((a!1 (and (inv2 a i S)
                     (not (< i S))
                     (<= 0 i1)
                     (< i1 S)
                     (not (= (select a i1) (- 1))))))
       (=> a!1 fail))
     ))(assert (not fail))
(check-sat)